letting n =  10
letting blocks =  [[1, 3], [1, 4], [1, 6], [1, 8], [1, 9], [2, 5], [2, 9], [2, 10], [3, 3], [3, 7], [3, 9], [4, 1], [4, 6], [4, 8], [5, 4], [5, 7], [5, 9], [6, 3], [6, 5], [6, 8], [6, 10], [7, 3], [7, 5], [7, 6], [7, 10], [8, 2], [8, 4], [8, 5], [8, 6], [8, 9], [9, 1], [9, 2], [9, 3], [9, 10], [10, 1], [10, 2], [10, 6], [10, 8]]
